p wcnf 30 63 99
1 1 0
1 2 0
1 3 0
1 4 0
1 5 0
1 6 0
1 7 0
1 8 0
1 -9 0
1 10 0
1 11 0
1 12 0
1 13 0
1 14 0
1 15 0
1 16 0
1 17 0
1 18 0
1 19 0
1 20 0
1 21 0
1 22 0
1 -23 0
1 24 0
1 25 0
1 26 0
1 27 0
1 28 0
10 -1 -6 -7 -8 -9 -11 -13 0
10 -15 -20 -21 -22 -23 -25 -27 0
10 -1 -2 -7 -8 -9 -11 -14 0
10 -15 -16 -21 -22 -23 -25 -28 0
10 -5 -6 -7 -8 -10 -11 -13 0
10 -19 -20 -21 -22 -24 -25 -27 0
10 29 30 0
99 1 5 0
99 2 6 0
99 3 7 0
99 4 8 0
99 9 10 0
99 11 12 0
99 13 14 0
99 15 19 0
99 16 20 0
99 17 21 0
99 18 22 0
99 23 24 0
99 25 26 0
99 27 28 0
99 1 -29 0
99 2 -29 0
99 3 -29 0
99 8 -29 0
99 10 -29 0
99 12 -29 0
99 14 -29 0
99 15 -30 0
99 16 -30 0
99 17 -30 0
99 22 -30 0
99 24 -30 0
99 26 -30 0
99 28 -30 0
